c n orig vars 82
p cnf 84 154
1 2 -83 0
3 4 -83 0
5 6 -83 0
7 8 -83 0
9 10 -83 0
11 12 -83 0
13 14 -83 0
15 16 -83 0
17 18 -83 0
19 20 -83 0
21 22 -83 0
23 24 -83 0
25 26 -83 0
27 28 -83 0
29 30 -83 0
31 32 -83 0
33 34 -83 0
35 36 -83 0
37 38 -83 0
39 40 -83 0
41 48 55 62 69 76 -84 0
42 49 56 63 70 77 -84 0
43 50 57 64 71 78 -84 0
44 51 58 65 72 79 -84 0
45 52 59 66 73 80 -84 0
46 53 60 67 74 81 -84 0
47 54 61 68 75 82 -84 0
-41 -42 -84 0
-41 -43 -84 0
-41 -44 -84 0
-41 -45 -84 0
-41 -46 -84 0
-41 -47 -84 0
-42 -43 -84 0
-42 -44 -84 0
-42 -45 -84 0
-42 -46 -84 0
-42 -47 -84 0
-43 -44 -84 0
-43 -45 -84 0
-43 -46 -84 0
-43 -47 -84 0
-44 -45 -84 0
-44 -46 -84 0
-44 -47 -84 0
-45 -46 -84 0
-45 -47 -84 0
-46 -47 -84 0
-48 -49 -84 0
-48 -50 -84 0
-48 -51 -84 0
-48 -52 -84 0
-48 -53 -84 0
-48 -54 -84 0
-49 -50 -84 0
-49 -51 -84 0
-49 -52 -84 0
-49 -53 -84 0
-49 -54 -84 0
-50 -51 -84 0
-50 -52 -84 0
-50 -53 -84 0
-50 -54 -84 0
-51 -52 -84 0
-51 -53 -84 0
-51 -54 -84 0
-52 -53 -84 0
-52 -54 -84 0
-53 -54 -84 0
-55 -56 -84 0
-55 -57 -84 0
-55 -58 -84 0
-55 -59 -84 0
-55 -60 -84 0
-55 -61 -84 0
-56 -57 -84 0
-56 -58 -84 0
-56 -59 -84 0
-56 -60 -84 0
-56 -61 -84 0
-57 -58 -84 0
-57 -59 -84 0
-57 -60 -84 0
-57 -61 -84 0
-58 -59 -84 0
-58 -60 -84 0
-58 -61 -84 0
-59 -60 -84 0
-59 -61 -84 0
-60 -61 -84 0
-62 -63 -84 0
-62 -64 -84 0
-62 -65 -84 0
-62 -66 -84 0
-62 -67 -84 0
-62 -68 -84 0
-63 -64 -84 0
-63 -65 -84 0
-63 -66 -84 0
-63 -67 -84 0
-63 -68 -84 0
-64 -65 -84 0
-64 -66 -84 0
-64 -67 -84 0
-64 -68 -84 0
-65 -66 -84 0
-65 -67 -84 0
-65 -68 -84 0
-66 -67 -84 0
-66 -68 -84 0
-67 -68 -84 0
-69 -70 -84 0
-69 -71 -84 0
-69 -72 -84 0
-69 -73 -84 0
-69 -74 -84 0
-69 -75 -84 0
-70 -71 -84 0
-70 -72 -84 0
-70 -73 -84 0
-70 -74 -84 0
-70 -75 -84 0
-71 -72 -84 0
-71 -73 -84 0
-71 -74 -84 0
-71 -75 -84 0
-72 -73 -84 0
-72 -74 -84 0
-72 -75 -84 0
-73 -74 -84 0
-73 -75 -84 0
-74 -75 -84 0
-76 -77 -84 0
-76 -78 -84 0
-76 -79 -84 0
-76 -80 -84 0
-76 -81 -84 0
-76 -82 -84 0
-77 -78 -84 0
-77 -79 -84 0
-77 -80 -84 0
-77 -81 -84 0
-77 -82 -84 0
-78 -79 -84 0
-78 -80 -84 0
-78 -81 -84 0
-78 -82 -84 0
-79 -80 -84 0
-79 -81 -84 0
-79 -82 -84 0
-80 -81 -84 0
-80 -82 -84 0
-81 -82 -84 0
83 84 0
